p cnf 10	26
1	2	3	0
-1	-2	-3	0
1	2	4	0
-1	-2	-4	0
1	3	4	0
-1	-3	-4	0
1	3	6	0
-1	-3	-6	0
1	4	6	0
-1	-4	-6	0
2	3	4	0
-2	-3	-4	0
2	3	7	0
-2	-3	-7	0
2	4	7	0
-2	-4	-7	0
3	4	6	0
-3	-4	-6	0
3	4	7	0
-3	-4	-7	0
3	6	7	0
-3	-6	-7	0
3	6	8	0
-3	-6	-8	0
4	6	7	0
-4	-6	-7	0